
Log started (V11.0.0) Thu May 15 09:14:52 2008

Tried aggregator 1 time.
Reduced MIP has 220 rows, 4001 columns, and 8020 nonzeros.
Presolve time =    0.03 sec.
Clique table members: 200.
MIP emphasis: balance optimality and feasibility.
MIP search method: dynamic search.
Parallel mode: none, using 1 thread.
Root relaxation solution time =    0.16 sec.

        Nodes                                         Cuts/
   Node  Left     Objective  IInf  Best Integer     Best Node    ItCnt     Gap

*     0+    0                        22009.0000     1005.3000      451   95.43%
*     0+    0                         1011.0000     1005.3000      451    0.56%
      0     0     1006.0000    32     1011.0000      Fract: 6      467    0.49%
*     0+    0                         1010.0000     1006.0000      467    0.40%
      0     0     1006.0000    27     1010.0000     Covers: 1      475    0.40%
*     0+    0                         1009.0000     1006.0000      475    0.30%
      0     0     1006.0000    30     1009.0000     Covers: 1      479    0.30%
      0     0     1006.0000    36     1009.0000     Covers: 2      484    0.30%
      0     2     1006.0000    36     1009.0000     1006.0000      484    0.30%
    100    86     1007.0000    36     1009.0000     1006.0000     4098    0.30%
    200   133    infeasible           1009.0000     1006.0000     7550    0.30%
    300   217     1006.0918    38     1009.0000     1006.0000    11408    0.30%
    400   279     1007.0609    39     1009.0000     1006.0000    17063    0.30%
    500   321     1006.0000    34     1009.0000     1006.0000    36544    0.30%
    600   311    infeasible           1009.0000     1006.0000    39641    0.30%
    700   266        cutoff           1009.0000     1006.0000    43067    0.30%
    800   262     1006.0000    34     1009.0000     1006.0000    46267    0.30%
    900   282     1006.0000    29     1009.0000     1006.0000    50612    0.30%
   1000   294     1007.0000    35     1009.0000     1006.0000    53696    0.30%
Elapsed time =  20.42 sec. (tree size =  1.20 MB, solutions = 4)
   1100   288     1006.0000    34     1009.0000     1006.0000    60201    0.30%
   1200   361     1008.0000    29     1009.0000     1006.0000    63101    0.30%
   1300   375     1008.0000    30     1009.0000     1006.0000    64702    0.30%
   1400   437    infeasible           1009.0000     1006.0000    71519    0.30%
   1500   516     1007.0000    35     1009.0000     1006.0000    75631    0.30%
   1600   601     1008.0000    31     1009.0000     1006.0000    79710    0.30%
   1700   693     1008.0000    37     1009.0000     1006.0000    83667    0.30%
   1800   785     1008.0000    19     1009.0000     1006.0000    88438    0.30%
   1900   883     1008.0000    31     1009.0000     1006.0000    93237    0.30%
   2000   931     1008.0000    36     1009.0000     1006.0000   114757    0.30%
Elapsed time =  36.08 sec. (tree size =  4.29 MB, solutions = 4)
   2100  1000     1007.0000    39     1009.0000     1006.0000   123079    0.30%
   2200  1078     1007.0000    24     1009.0000     1006.0000   129019    0.30%
   2300  1166     1007.0000    37     1009.0000     1006.0000   135191    0.30%
   2400  1218     1007.0000    47     1009.0000     1006.0000   141278    0.30%
   2500  1313     1007.1051    62     1009.0000     1006.0000   144647    0.30%
   2600  1399     1007.2155    57     1009.0000     1006.0000   151033    0.30%
   2700  1482     1007.0000    32     1009.0000     1006.0000   155269    0.30%
   2800  1568     1008.0000    37     1009.0000     1006.0000   157812    0.30%
   2900  1645     1007.0000    37     1009.0000     1006.0000   161545    0.30%
   3000  1734     1007.0000    35     1009.0000     1006.0000   167629    0.30%
Elapsed time =  50.63 sec. (tree size =  8.33 MB, solutions = 4)
   3100  1819     1008.0000    19     1009.0000     1006.0000   174795    0.30%
   3200  1905     1008.0000    24     1009.0000     1006.0000   184422    0.30%
   3300  1977    infeasible           1009.0000     1006.0000   199466    0.30%
   3400  2055     1008.0000    38     1009.0000     1006.0000   213032    0.30%
   3500  2121     1008.0000    23     1009.0000     1006.0000   228060    0.30%
   3600  2190     1007.0000    42     1009.0000     1006.0000   240586    0.30%
   3700  2275     1007.0000    33     1009.0000     1006.0000   244693    0.30%
   3800  2369     1007.0000    29     1009.0000     1006.0000   247063    0.30%
   3900  2447     1007.0000    29     1009.0000     1006.0000   251578    0.30%
   4000  2532     1007.0000    37     1009.0000     1006.0000   257093    0.30%
Elapsed time =  71.50 sec. (tree size = 12.52 MB, solutions = 4)
   4100  2611     1008.0000    18     1009.0000     1006.0000   266266    0.30%
   4200  2701     1008.0000    35     1009.0000     1006.0000   272802    0.30%
   4300  2787     1008.0000    32     1009.0000     1006.0000   280894    0.30%
   4400  2866     1007.0000    39     1009.0000     1006.0000   293219    0.30%
   4500  2958     1008.0000    27     1009.0000     1006.0000   296615    0.30%
   4600  3037     1007.0000    39     1009.0000     1006.0000   300472    0.30%
   4700  3128     1007.0000    30     1009.0000     1006.0000   303094    0.30%
   4800  3210     1007.0000    38     1009.0000     1006.0000   309048    0.30%
   4900  3302     1007.0000    25     1009.0000     1006.0000   311544    0.30%
   5000  3385     1007.0000    29     1009.0000     1006.0000   317081    0.30%
Elapsed time =  86.20 sec. (tree size = 17.01 MB, solutions = 4)
   5100  3459    infeasible           1009.0000     1006.0000   325705    0.30%
   5200  3544     1006.1984    99     1009.0000     1006.0000   329826    0.30%
   5300  3638     1007.0000    39     1009.0000     1006.0000   332470    0.30%
   5400  3713     1007.0000    35     1009.0000     1006.0000   342297    0.30%
   5500  3792     1008.0000    29     1009.0000     1006.0000   350380    0.30%
   5600  3865    infeasible           1009.0000     1006.0000   356931    0.30%
   5700  3949     1007.0000    27     1009.0000     1006.0000   360436    0.30%
   5800  4042     1008.0000    16     1009.0000     1006.0000   363900    0.30%
   5900  4118     1007.0000    30     1009.0000     1006.0000   370767    0.30%
   6000  4204     1007.0000    30     1009.0000     1006.0000   376249    0.30%
Elapsed time =  98.92 sec. (tree size = 21.44 MB, solutions = 4)
   6100  4294     1007.0000    35     1009.0000     1006.0000   382287    0.30%
   6200  4359     1007.0000    31     1009.0000     1006.0000   393489    0.30%
   6300  4448    infeasible           1009.0000     1006.0000   396535    0.30%
   6400  4545     1007.0000    44     1009.0000     1006.0000   398671    0.30%
   6500  4634     1008.0000    23     1009.0000     1006.0000   402023    0.30%
   6600  4726     1008.0000    31     1009.0000     1006.0000   404156    0.30%
   6700  4818     1008.0000    29     1009.0000     1006.0000   406199    0.30%
   6800  4904     1007.0000    40     1009.0000     1006.0000   409193    0.30%
   6900  4985     1007.4836    57     1009.0000     1006.0000   414315    0.30%
   7000  5069     1008.0000    29     1009.0000     1006.0000   419396    0.30%
Elapsed time = 109.92 sec. (tree size = 26.14 MB, solutions = 4)
   7100  5131     1008.0000    41     1009.0000     1006.0000   426710    0.30%
   7200  5220     1007.0000    28     1009.0000     1006.0000   430923    0.30%
   7300  5308     1007.0000    66     1009.0000     1006.0000   434610    0.30%
   7400  5404     1008.0000    13     1009.0000     1006.0000   436719    0.30%
   7500  5469     1008.0000    27     1009.0000     1006.0000   439028    0.30%
   7600  5555     1008.0000    56     1009.0000     1006.0000   442019    0.30%
   7700  5648     1007.0000    30     1009.0000     1006.0000   446100    0.30%
   7800  5731     1007.0000    24     1009.0000     1006.0000   450881    0.30%
   7900  5810     1007.7204    64     1009.0000     1006.0000   462807    0.30%
   8000  5893     1007.0000    27     1009.0000     1006.0000   478045    0.30%
Elapsed time = 123.50 sec. (tree size = 30.76 MB, solutions = 4)
   8100  5984     1007.0000    28     1009.0000     1006.0000   482853    0.30%
   8200  6074     1007.0000    31     1009.0000     1006.0000   485309    0.30%
   8300  6173     1008.0000    47     1009.0000     1006.0000   487035    0.30%
   8400  6265     1008.0000    45     1009.0000     1006.0000   490020    0.30%
   8500  6320     1007.0000    41     1009.0000     1006.0000   496682    0.30%
   8600  6412     1008.0000    34     1009.0000     1006.0000   500149    0.30%
   8700  6489     1007.0000    32     1009.0000     1006.0000   507187    0.30%
   8800  6586     1008.0000    40     1009.0000     1006.0000   509099    0.30%
   8900  6679     1008.0000    40     1009.0000     1006.0000   511483    0.30%
   9000  6760     1007.0000    24     1009.0000     1006.0000   513914    0.30%
Elapsed time = 134.13 sec. (tree size = 35.83 MB, solutions = 4)
   9100  6857     1008.0000    36     1009.0000     1006.0000   516413    0.30%
   9200  6940     1008.0000    42     1009.0000     1006.0000   522445    0.30%
   9300  7033     1007.0000    58     1009.0000     1006.0000   525633    0.30%
   9400  7103     1007.0000    32     1009.0000     1006.0000   530685    0.30%
   9500  7190     1008.0000    35     1009.0000     1006.0000   536850    0.30%
   9600  7269     1007.0000    28     1009.0000     1006.0000   539878    0.30%
   9700  7359     1007.0000    37     1009.0000     1006.0000   544908    0.30%
   9800  7443     1007.0000    42     1009.0000     1006.0000   548800    0.30%
   9900  7537     1007.0000    44     1009.0000     1006.0000   551826    0.30%
  10000  7626     1008.0000    31     1009.0000     1006.0000   556133    0.30%
Elapsed time = 146.95 sec. (tree size = 41.08 MB, solutions = 4)
  10100  7719     1007.0000    36     1009.0000     1006.0000   560068    0.30%
  10200  7811     1008.0000    32     1009.0000     1006.0000   564404    0.30%
  10300  7900     1007.0000    50     1009.0000     1006.0000   567225    0.30%
  10400  7964     1007.0000    76     1009.0000     1006.0000   573720    0.30%
  10500  8061     1008.0000    37     1009.0000     1006.0000   576418    0.30%
  10600  8151     1008.0000    32     1009.0000     1006.0000   580523    0.30%
  10700  8246     1007.0000    43     1009.0000     1006.0000   583510    0.30%
  10800  8335     1006.0000    51     1009.0000     1006.0000   587063    0.30%
  10900  8433     1008.0000    28     1009.0000     1006.0000   589569    0.30%
  11000  8525     1008.0000    32     1009.0000     1006.0000   592148    0.30%
Elapsed time = 158.63 sec. (tree size = 46.76 MB, solutions = 4)
  11100  8617     1008.0000    39     1009.0000     1006.0000   595285    0.30%
  11200  8698     1007.0000    24     1009.0000     1006.0000   601362    0.30%
  11300  8795     1008.0000    31     1009.0000     1006.0000   604092    0.30%
  11400  8883     1008.0000    45     1009.0000     1006.0000   606902    0.30%
  11500  8969     1007.0000    35     1009.0000     1006.0000   611037    0.30%
  11600  9068     1007.0000    29     1009.0000     1006.0000   613822    0.30%
  11700  9156     1007.0031    61     1009.0000     1006.0000   617347    0.30%
  11800  9241     1007.0000    19     1009.0000     1006.0000   623116    0.30%
  11900  9333     1007.0000    24     1009.0000     1006.0000   626725    0.30%
  12000  9429     1007.0000    43     1009.0000     1006.0000   630036    0.30%
Elapsed time = 169.81 sec. (tree size = 52.40 MB, solutions = 4)
  12100  9517     1008.0000    14     1009.0000     1006.0000   634940    0.30%
  12200  9604     1007.0000    45     1009.0000     1006.0000   642390    0.30%
  12300  9697     1008.0000    46     1009.0000     1006.0000   646138    0.30%
* 12323+ 5703                         1008.0000     1006.0000   647369    0.20%
  12400  5772     1007.0000    38     1008.0000     1006.0000   650812    0.20%
  12500  5865     1007.0000    44     1008.0000     1006.0000   653529    0.20%
  12600  5965     1007.0000    48     1008.0000     1006.0000   655632    0.20%
  12700  6048     1007.0000    55     1008.0000     1006.0000   660363    0.20%
  12800  6123     1007.0000    37     1008.0000     1006.0000   667387    0.20%
  12900  6205     1007.0000    34     1008.0000     1006.0000   672405    0.20%
  13000  6298     1007.0000    35     1008.0000     1006.0000   676033    0.20%
Elapsed time = 184.49 sec. (tree size = 35.56 MB, solutions = 5)
  13100  6392     1007.0000    25     1008.0000     1006.0000   679855    0.20%
  13200  6485     1007.0000    41     1008.0000     1006.0000   681511    0.20%
  13300  6578     1007.0000    39     1008.0000     1006.0000   684481    0.20%
  13400  6669     1007.0000    49     1008.0000     1006.0000   688017    0.20%
  13500  6758     1007.0000    47     1008.0000     1006.0000   690576    0.20%
  13600  6837     1007.0000    28     1008.0000     1006.0000   694308    0.20%
  13700  6926     1007.0000    36     1008.0000     1006.0000   698276    0.20%
  13800  7018     1007.0000    29     1008.0000     1006.0000   700415    0.20%
  13900  7111     1007.0000    35     1008.0000     1006.0000   703710    0.20%
  14000  7204     1007.0000    42     1008.0000     1006.0000   706762    0.20%
Elapsed time = 195.64 sec. (tree size = 41.59 MB, solutions = 5)
  14100  7299     1007.0000    32     1008.0000     1006.0000   709562    0.20%
  14200  7382     1007.0000    48     1008.0000     1006.0000   714937    0.20%
  14300  7472     1006.8430    83     1008.0000     1006.0000   718754    0.20%
  14400  7545     1007.0000    55     1008.0000     1006.0000   727130    0.20%
  14500  7634     1007.0000    50     1008.0000     1006.0000   730950    0.20%
  14600  7729     1007.0000    57     1008.0000     1006.0000   733595    0.20%
  14700  7818     1007.0000    37     1008.0000     1006.0000   736000    0.20%
  14800  7908     1007.0000    27     1008.0000     1006.0000   739751    0.20%
  14900  8006     1007.0000    49     1008.0000     1006.0000   741570    0.20%
  15000  8095     1007.0000    51     1008.0000     1006.0000   744862    0.20%
Elapsed time = 208.64 sec. (tree size = 47.67 MB, solutions = 5)
  15100  8190     1007.0000    30     1008.0000     1006.0000   747174    0.20%
  15200  8276     1007.0000    47     1008.0000     1006.0000   751986    0.20%
  15300  8360     1007.0000    35     1008.0000     1006.0000   755565    0.20%
  15400  8447     1007.0000    48     1008.0000     1006.0000   761236    0.20%
  15500  8525     1007.0000    30     1008.0000     1006.0000   766686    0.20%
  15600  8610     1007.0000    16     1008.0000     1006.0000   772346    0.20%
  15700  8710     1007.0000    20     1008.0000     1006.0000   773410    0.20%
  15800  8810     1007.0000    22     1008.0000     1006.0000   774814    0.20%
  15900  8888     1007.0000    10     1008.0000     1006.0000   778272    0.20%
  16000  8979     1007.0000    59     1008.0000     1006.0000   782105    0.20%
Elapsed time = 223.92 sec. (tree size = 53.91 MB, solutions = 5)
  16100  9072     1007.0000    32     1008.0000     1006.0000   785983    0.20%
* 16113+  254                         1007.0000     1006.0000   786842    0.10%
  16200   166    infeasible           1007.0000     1006.0000   870648    0.10%
  16300    66    infeasible           1007.0000     1006.0000   980164    0.10%

Cover cuts applied:  275
Mixed integer rounding cuts applied:  9
Gomory fractional cuts applied:  14

Solution pool: 6 solutions saved.

MIP - Integer optimal solution:  Objective = 1.0070000000e+003
Solution time =  294.67 sec.  Iterations = 1045898  Nodes = 16367


Incumbent solution
Variable Name           Solution Value
Cmax                       1007.000000
X_1_15                        1.000000
X_2_10                        1.000000
X_3_17                        1.000000
X_4_7                         1.000000
X_5_8                         1.000000
X_6_20                        1.000000
X_7_13                        1.000000
X_8_12                        1.000000
X_9_18                        1.000000
X_10_6                        1.000000
X_11_5                        1.000000
X_12_15                       1.000000
X_13_9                        1.000000
X_14_13                       1.000000
X_15_18                       1.000000
X_16_6                        1.000000
X_17_15                       1.000000
X_18_19                       1.000000
X_19_7                        1.000000
X_20_2                        1.000000
X_21_7                        1.000000
X_22_9                        1.000000
X_23_19                       1.000000
X_24_11                       1.000000
X_25_4                        1.000000
X_26_5                        1.000000
X_27_12                       1.000000
X_28_20                       1.000000
X_29_4                        1.000000
X_30_9                        1.000000
X_31_20                       1.000000
X_32_15                       1.000000
X_33_9                        1.000000
X_34_18                       1.000000
X_35_6                        1.000000
X_36_1                        1.000000
X_37_3                        1.000000
X_38_17                       1.000000
X_39_1                        1.000000
X_40_20                       1.000000
X_41_7                        1.000000
X_42_10                       1.000000
X_43_8                        1.000000
X_44_15                       1.000000
X_45_8                        1.000000
X_46_2                        1.000000
X_47_16                       1.000000
X_48_13                       1.000000
X_49_11                       1.000000
X_50_14                       1.000000
X_51_7                        1.000000
X_52_12                       1.000000
X_53_7                        1.000000
X_54_5                        1.000000
X_55_16                       1.000000
X_56_17                       1.000000
X_57_13                       1.000000
X_58_7                        1.000000
X_59_7                        1.000000
X_60_1                        1.000000
X_61_12                       1.000000
X_62_3                        1.000000
X_63_5                        1.000000
X_64_17                       1.000000
X_65_6                        1.000000
X_66_1                        1.000000
X_67_18                       1.000000
X_68_16                       1.000000
X_69_13                       1.000000
X_70_20                       1.000000
X_71_2                        1.000000
X_72_17                       1.000000
X_73_2                        1.000000
X_74_11                       1.000000
X_75_9                        1.000000
X_76_6                        1.000000
X_77_17                       1.000000
X_78_13                       1.000000
X_79_20                       1.000000
X_80_16                       1.000000
X_81_15                       1.000000
X_82_10                       1.000000
X_83_11                       1.000000
X_84_20                       1.000000
X_85_13                       1.000000
X_86_12                       1.000000
X_87_20                       1.000000
X_88_17                       1.000000
X_89_16                       1.000000
X_90_7                        1.000000
X_91_1                        1.000000
X_92_10                       1.000000
X_93_8                        1.000000
X_94_16                       1.000000
X_95_16                       1.000000
X_96_11                       1.000000
X_97_20                       1.000000
X_98_5                        1.000000
X_99_19                       1.000000
X_100_14                      1.000000
X_101_10                      1.000000
X_102_11                      1.000000
X_103_19                      1.000000
X_104_9                       1.000000
X_105_18                      1.000000
X_106_16                      1.000000
X_107_4                       1.000000
X_108_8                       1.000000
X_109_14                      1.000000
X_110_19                      1.000000
X_111_19                      1.000000
X_112_1                       1.000000
X_113_6                       1.000000
X_114_14                      1.000000
X_115_6                       1.000000
X_116_14                      1.000000
X_117_13                      1.000000
X_118_17                      1.000000
X_119_10                      1.000000
X_120_8                       1.000000
X_121_9                       1.000000
X_122_11                      1.000000
X_123_3                       1.000000
X_124_15                      1.000000
X_125_10                      1.000000
X_126_3                       1.000000
X_127_3                       1.000000
X_128_8                       1.000000
X_129_6                       1.000000
X_130_4                       1.000000
X_131_8                       1.000000
X_132_4                       1.000000
X_133_18                      1.000000
X_134_3                       1.000000
X_135_14                      1.000000
X_136_5                       1.000000
X_137_19                      1.000000
X_138_17                      1.000000
X_139_1                       1.000000
X_140_16                      1.000000
X_141_18                      1.000000
X_142_4                       1.000000
X_143_10                      1.000000
X_144_8                       1.000000
X_145_1                       1.000000
X_146_5                       1.000000
X_147_14                      1.000000
X_148_8                       1.000000
X_149_11                      1.000000
X_150_16                      1.000000
X_151_12                      1.000000
X_152_19                      1.000000
X_153_4                       1.000000
X_154_18                      1.000000
X_155_1                       1.000000
X_156_10                      1.000000
X_157_14                      1.000000
X_158_10                      1.000000
X_159_11                      1.000000
X_160_12                      1.000000
X_161_20                      1.000000
X_162_15                      1.000000
X_163_14                      1.000000
X_164_3                       1.000000
X_165_19                      1.000000
X_166_15                      1.000000
X_167_19                      1.000000
X_168_2                       1.000000
X_169_3                       1.000000
X_170_13                      1.000000
X_171_12                      1.000000
X_172_4                       1.000000
X_173_9                       1.000000
X_174_17                      1.000000
X_175_11                      1.000000
X_176_2                       1.000000
X_177_13                      1.000000
X_178_3                       1.000000
X_179_2                       1.000000
X_180_4                       1.000000
X_181_5                       1.000000
X_182_18                      1.000000
X_183_4                       1.000000
X_184_1                       1.000000
X_185_9                       1.000000
X_186_6                       1.000000
X_187_5                       1.000000
X_188_2                       1.000000
X_189_2                       1.000000
X_190_12                      1.000000
X_191_15                      1.000000
X_192_2                       1.000000
X_193_9                       1.000000
X_194_6                       1.000000
X_195_3                       1.000000
X_196_5                       1.000000
X_197_12                      1.000000
X_198_14                      1.000000
X_199_18                      1.000000
X_200_7                       1.000000
All other variables in the range 1-4001 are 0.
